500
1000
396
396
395
395
394
394
394
393
392
392
392
392
392
391
391
391
391
390
390
390
390
390
390
389
389
388
388
388
387
387
387
387
386
386
385
385
385
385
384
384
384
384
384
384
383
383
383
383
383
382
382
382
381
381
381
381
381
380
379
379
379
379
379
379
379
378
378
378
378
378
377
377
377
377
376
376
375
375
374
374
374
374
374
373
373
372
372
372
371
371
371
370
370
370
370
369
369
369
369
369
368
368
368
367
367
367
366
366
365
365
365
364
364
364
364
363
363
362
362
361
361
360
360
360
360
360
360
360
360
360
359
359
358
358
358
358
357
357
357
357
356
356
356
355
355
355
354
353
353
353
352
352
352
352
352
352
352
352
352
351
351
351
350
350
350
349
349
349
349
349
348
348
348
347
347
347
347
346
346
346
345
345
345
344
344
344
344
344
343
343
343
342
342
342
342
342
342
342
342
341
341
341
341
340
340
340
340
339
339
338
338
338
337
337
337
337
337
337
336
336
336
336
336
336
336
336
335
335
335
335
334
334
333
333
333
332
332
332
332
332
332
332
331
331
331
331
331
330
330
330
330
330
330
330
330
330
330
329
329
329
329
329
328
328
328
327
327
326
326
326
326
325
324
324
324
323
323
322
322
322
321
321
321
321
320
320
320
320
319
319
318
318
318
318
318
318
317
317
317
317
316
316
316
316
316
315
315
315
314
314
314
314
313
313
313
313
313
313
311
311
311
310
310
310
310
310
309
307
307
306
306
306
306
306
306
306
305
305
305
305
304
304
304
304
303
303
303
303
303
303
303
303
302
302
302
301
301
301
301
301
301
301
301
301
300
300
299
299
299
299
298
298
297
297
297
296
296
296
295
295
295
294
294
293
293
293
293
293
292
292
292
292
292
292
291
291
291
291
291
291
291
291
291
291
290
289
289
288
288
288
287
287
287
286
286
286
285
285
284
284
284
284
284
284
283
283
283
283
283
283
282
282
282
282
282
281
281
281
281
281
281
280
280
280
280
280
280
280
280
280
279
279
279
279
279
278
277
277
276
276
275
275
275
275
275
275
275
274
274
274
273
273
273
271
271
271
271
271
271
271
270
270
270
270
270
269
269
269
269
268
268
268
267
267
267
267
267
267
267
267
